p cnf 424 1152
33 0
98 -162 0
66 -162 0
-66 -98 162 0
-66 -98 -163 0
66 98 -163 0
66 -98 163 0
-66 98 163 0
-67 -99 164 0
-99 -162 164 0
-67 -162 164 0
67 99 -164 0
99 162 -164 0
67 162 -164 0
99 -164 -165 0
67 -164 -165 0
162 -164 -165 0
-99 164 165 0
-67 164 165 0
-162 164 165 0
-67 -99 -162 165 0
67 99 162 -165 0
-68 -100 166 0
-100 -164 166 0
-68 -164 166 0
68 100 -166 0
100 164 -166 0
68 164 -166 0
100 -166 -167 0
68 -166 -167 0
164 -166 -167 0
-100 166 167 0
-68 166 167 0
-164 166 167 0
-68 -100 -164 167 0
68 100 164 -167 0
-69 -101 168 0
-101 -166 168 0
-69 -166 168 0
69 101 -168 0
101 166 -168 0
69 166 -168 0
101 -168 -169 0
69 -168 -169 0
166 -168 -169 0
-101 168 169 0
-69 168 169 0
-166 168 169 0
-69 -101 -166 169 0
69 101 166 -169 0
-70 -102 170 0
-102 -168 170 0
-70 -168 170 0
70 102 -170 0
102 168 -170 0
70 168 -170 0
102 -170 -171 0
70 -170 -171 0
168 -170 -171 0
-102 170 171 0
-70 170 171 0
-168 170 171 0
-70 -102 -168 171 0
70 102 168 -171 0
-71 -103 172 0
-103 -170 172 0
-71 -170 172 0
71 103 -172 0
103 170 -172 0
71 170 -172 0
103 -172 -173 0
71 -172 -173 0
170 -172 -173 0
-103 172 173 0
-71 172 173 0
-170 172 173 0
-71 -103 -170 173 0
71 103 170 -173 0
-72 -104 174 0
-104 -172 174 0
-72 -172 174 0
72 104 -174 0
104 172 -174 0
72 172 -174 0
104 -174 -175 0
72 -174 -175 0
172 -174 -175 0
-104 174 175 0
-72 174 175 0
-172 174 175 0
-72 -104 -172 175 0
72 104 172 -175 0
-73 -105 176 0
-105 -174 176 0
-73 -174 176 0
73 105 -176 0
105 174 -176 0
73 174 -176 0
105 -176 -177 0
73 -176 -177 0
174 -176 -177 0
-105 176 177 0
-73 176 177 0
-174 176 177 0
-73 -105 -174 177 0
73 105 174 -177 0
-74 -106 178 0
-106 -176 178 0
-74 -176 178 0
74 106 -178 0
106 176 -178 0
74 176 -178 0
106 -178 -179 0
74 -178 -179 0
176 -178 -179 0
-106 178 179 0
-74 178 179 0
-176 178 179 0
-74 -106 -176 179 0
74 106 176 -179 0
-75 -107 180 0
-107 -178 180 0
-75 -178 180 0
75 107 -180 0
107 178 -180 0
75 178 -180 0
107 -180 -181 0
75 -180 -181 0
178 -180 -181 0
-107 180 181 0
-75 180 181 0
-178 180 181 0
-75 -107 -178 181 0
75 107 178 -181 0
-76 -108 182 0
-108 -180 182 0
-76 -180 182 0
76 108 -182 0
108 180 -182 0
76 180 -182 0
108 -182 -183 0
76 -182 -183 0
180 -182 -183 0
-108 182 183 0
-76 182 183 0
-180 182 183 0
-76 -108 -180 183 0
76 108 180 -183 0
-77 -109 184 0
-109 -182 184 0
-77 -182 184 0
77 109 -184 0
109 182 -184 0
77 182 -184 0
109 -184 -185 0
77 -184 -185 0
182 -184 -185 0
-109 184 185 0
-77 184 185 0
-182 184 185 0
-77 -109 -182 185 0
77 109 182 -185 0
-78 -110 186 0
-110 -184 186 0
-78 -184 186 0
78 110 -186 0
110 184 -186 0
78 184 -186 0
110 -186 -187 0
78 -186 -187 0
184 -186 -187 0
-110 186 187 0
-78 186 187 0
-184 186 187 0
-78 -110 -184 187 0
78 110 184 -187 0
-79 -111 188 0
-111 -186 188 0
-79 -186 188 0
79 111 -188 0
111 186 -188 0
79 186 -188 0
111 -188 -189 0
79 -188 -189 0
186 -188 -189 0
-111 188 189 0
-79 188 189 0
-186 188 189 0
-79 -111 -186 189 0
79 111 186 -189 0
-80 -112 190 0
-112 -188 190 0
-80 -188 190 0
80 112 -190 0
112 188 -190 0
80 188 -190 0
112 -190 -191 0
80 -190 -191 0
188 -190 -191 0
-112 190 191 0
-80 190 191 0
-188 190 191 0
-80 -112 -188 191 0
80 112 188 -191 0
-81 -113 192 0
-113 -190 192 0
-81 -190 192 0
81 113 -192 0
113 190 -192 0
81 190 -192 0
113 -192 -193 0
81 -192 -193 0
190 -192 -193 0
-113 192 193 0
-81 192 193 0
-190 192 193 0
-81 -113 -190 193 0
81 113 190 -193 0
-82 -114 194 0
-114 -192 194 0
-82 -192 194 0
82 114 -194 0
114 192 -194 0
82 192 -194 0
114 -194 -195 0
82 -194 -195 0
192 -194 -195 0
-114 194 195 0
-82 194 195 0
-192 194 195 0
-82 -114 -192 195 0
82 114 192 -195 0
-83 -115 196 0
-115 -194 196 0
-83 -194 196 0
83 115 -196 0
115 194 -196 0
83 194 -196 0
115 -196 -197 0
83 -196 -197 0
194 -196 -197 0
-115 196 197 0
-83 196 197 0
-194 196 197 0
-83 -115 -194 197 0
83 115 194 -197 0
-84 -116 198 0
-116 -196 198 0
-84 -196 198 0
84 116 -198 0
116 196 -198 0
84 196 -198 0
116 -198 -199 0
84 -198 -199 0
196 -198 -199 0
-116 198 199 0
-84 198 199 0
-196 198 199 0
-84 -116 -196 199 0
84 116 196 -199 0
-85 -117 200 0
-117 -198 200 0
-85 -198 200 0
85 117 -200 0
117 198 -200 0
85 198 -200 0
117 -200 -201 0
85 -200 -201 0
198 -200 -201 0
-117 200 201 0
-85 200 201 0
-198 200 201 0
-85 -117 -198 201 0
85 117 198 -201 0
-86 -118 202 0
-118 -200 202 0
-86 -200 202 0
86 118 -202 0
118 200 -202 0
86 200 -202 0
118 -202 -203 0
86 -202 -203 0
200 -202 -203 0
-118 202 203 0
-86 202 203 0
-200 202 203 0
-86 -118 -200 203 0
86 118 200 -203 0
-87 -119 204 0
-119 -202 204 0
-87 -202 204 0
87 119 -204 0
119 202 -204 0
87 202 -204 0
119 -204 -205 0
87 -204 -205 0
202 -204 -205 0
-119 204 205 0
-87 204 205 0
-202 204 205 0
-87 -119 -202 205 0
87 119 202 -205 0
-88 -120 206 0
-120 -204 206 0
-88 -204 206 0
88 120 -206 0
120 204 -206 0
88 204 -206 0
120 -206 -207 0
88 -206 -207 0
204 -206 -207 0
-120 206 207 0
-88 206 207 0
-204 206 207 0
-88 -120 -204 207 0
88 120 204 -207 0
-89 -121 208 0
-121 -206 208 0
-89 -206 208 0
89 121 -208 0
121 206 -208 0
89 206 -208 0
121 -208 -209 0
89 -208 -209 0
206 -208 -209 0
-121 208 209 0
-89 208 209 0
-206 208 209 0
-89 -121 -206 209 0
89 121 206 -209 0
-90 -122 210 0
-122 -208 210 0
-90 -208 210 0
90 122 -210 0
122 208 -210 0
90 208 -210 0
122 -210 -211 0
90 -210 -211 0
208 -210 -211 0
-122 210 211 0
-90 210 211 0
-208 210 211 0
-90 -122 -208 211 0
90 122 208 -211 0
-91 -123 212 0
-123 -210 212 0
-91 -210 212 0
91 123 -212 0
123 210 -212 0
91 210 -212 0
123 -212 -213 0
91 -212 -213 0
210 -212 -213 0
-123 212 213 0
-91 212 213 0
-210 212 213 0
-91 -123 -210 213 0
91 123 210 -213 0
-92 -124 214 0
-124 -212 214 0
-92 -212 214 0
92 124 -214 0
124 212 -214 0
92 212 -214 0
124 -214 -215 0
92 -214 -215 0
212 -214 -215 0
-124 214 215 0
-92 214 215 0
-212 214 215 0
-92 -124 -212 215 0
92 124 212 -215 0
-93 -125 216 0
-125 -214 216 0
-93 -214 216 0
93 125 -216 0
125 214 -216 0
93 214 -216 0
125 -216 -217 0
93 -216 -217 0
214 -216 -217 0
-125 216 217 0
-93 216 217 0
-214 216 217 0
-93 -125 -214 217 0
93 125 214 -217 0
-94 -126 218 0
-126 -216 218 0
-94 -216 218 0
94 126 -218 0
126 216 -218 0
94 216 -218 0
126 -218 -219 0
94 -218 -219 0
216 -218 -219 0
-126 218 219 0
-94 218 219 0
-216 218 219 0
-94 -126 -216 219 0
94 126 216 -219 0
-95 -127 220 0
-127 -218 220 0
-95 -218 220 0
95 127 -220 0
127 218 -220 0
95 218 -220 0
127 -220 -221 0
95 -220 -221 0
218 -220 -221 0
-127 220 221 0
-95 220 221 0
-218 220 221 0
-95 -127 -218 221 0
95 127 218 -221 0
-96 -128 222 0
-128 -220 222 0
-96 -220 222 0
96 128 -222 0
128 220 -222 0
96 220 -222 0
128 -222 -223 0
96 -222 -223 0
220 -222 -223 0
-128 222 223 0
-96 222 223 0
-220 222 223 0
-96 -128 -220 223 0
96 128 220 -223 0
-97 -129 224 0
-129 -222 224 0
-97 -222 224 0
97 129 -224 0
129 222 -224 0
97 222 -224 0
129 -224 -225 0
97 -224 -225 0
222 -224 -225 0
-129 224 225 0
-97 224 225 0
-222 224 225 0
-97 -129 -222 225 0
97 129 222 -225 0
130 -226 0
163 -226 0
-130 -163 226 0
-130 -163 -2 0
130 163 -2 0
-130 163 2 0
130 -163 2 0
-131 -165 227 0
-131 -226 227 0
-165 -226 227 0
131 165 -227 0
131 226 -227 0
165 226 -227 0
131 -227 -3 0
165 -227 -3 0
226 -227 -3 0
-131 227 3 0
-165 227 3 0
-226 227 3 0
-131 -165 -226 3 0
131 165 226 -3 0
-132 -167 228 0
-132 -227 228 0
-167 -227 228 0
132 167 -228 0
132 227 -228 0
167 227 -228 0
132 -228 -4 0
167 -228 -4 0
227 -228 -4 0
-132 228 4 0
-167 228 4 0
-227 228 4 0
-132 -167 -227 4 0
132 167 227 -4 0
-133 -169 229 0
-133 -228 229 0
-169 -228 229 0
133 169 -229 0
133 228 -229 0
169 228 -229 0
133 -229 -5 0
169 -229 -5 0
228 -229 -5 0
-133 229 5 0
-169 229 5 0
-228 229 5 0
-133 -169 -228 5 0
133 169 228 -5 0
-134 -171 230 0
-134 -229 230 0
-171 -229 230 0
134 171 -230 0
134 229 -230 0
171 229 -230 0
134 -230 -6 0
171 -230 -6 0
229 -230 -6 0
-134 230 6 0
-171 230 6 0
-229 230 6 0
-134 -171 -229 6 0
134 171 229 -6 0
-135 -173 231 0
-135 -230 231 0
-173 -230 231 0
135 173 -231 0
135 230 -231 0
173 230 -231 0
135 -231 -7 0
173 -231 -7 0
230 -231 -7 0
-135 231 7 0
-173 231 7 0
-230 231 7 0
-135 -173 -230 7 0
135 173 230 -7 0
-136 -175 232 0
-136 -231 232 0
-175 -231 232 0
136 175 -232 0
136 231 -232 0
175 231 -232 0
136 -232 -8 0
175 -232 -8 0
231 -232 -8 0
-136 232 8 0
-175 232 8 0
-231 232 8 0
-136 -175 -231 8 0
136 175 231 -8 0
-137 -177 233 0
-137 -232 233 0
-177 -232 233 0
137 177 -233 0
137 232 -233 0
177 232 -233 0
137 -233 -9 0
177 -233 -9 0
232 -233 -9 0
-137 233 9 0
-177 233 9 0
-232 233 9 0
-137 -177 -232 9 0
137 177 232 -9 0
-138 -179 234 0
-138 -233 234 0
-179 -233 234 0
138 179 -234 0
138 233 -234 0
179 233 -234 0
138 -234 -10 0
179 -234 -10 0
233 -234 -10 0
-138 234 10 0
-179 234 10 0
-233 234 10 0
-138 -179 -233 10 0
138 179 233 -10 0
-139 -181 235 0
-139 -234 235 0
-181 -234 235 0
139 181 -235 0
139 234 -235 0
181 234 -235 0
139 -235 -11 0
181 -235 -11 0
234 -235 -11 0
-139 235 11 0
-181 235 11 0
-234 235 11 0
-139 -181 -234 11 0
139 181 234 -11 0
-140 -183 236 0
-140 -235 236 0
-183 -235 236 0
140 183 -236 0
140 235 -236 0
183 235 -236 0
140 -236 -12 0
183 -236 -12 0
235 -236 -12 0
-140 236 12 0
-183 236 12 0
-235 236 12 0
-140 -183 -235 12 0
140 183 235 -12 0
-141 -185 237 0
-141 -236 237 0
-185 -236 237 0
141 185 -237 0
141 236 -237 0
185 236 -237 0
141 -237 -13 0
185 -237 -13 0
236 -237 -13 0
-141 237 13 0
-185 237 13 0
-236 237 13 0
-141 -185 -236 13 0
141 185 236 -13 0
-142 -187 238 0
-142 -237 238 0
-187 -237 238 0
142 187 -238 0
142 237 -238 0
187 237 -238 0
142 -238 -14 0
187 -238 -14 0
237 -238 -14 0
-142 238 14 0
-187 238 14 0
-237 238 14 0
-142 -187 -237 14 0
142 187 237 -14 0
-143 -189 239 0
-143 -238 239 0
-189 -238 239 0
143 189 -239 0
143 238 -239 0
189 238 -239 0
143 -239 -15 0
189 -239 -15 0
238 -239 -15 0
-143 239 15 0
-189 239 15 0
-238 239 15 0
-143 -189 -238 15 0
143 189 238 -15 0
-144 -191 240 0
-144 -239 240 0
-191 -239 240 0
144 191 -240 0
144 239 -240 0
191 239 -240 0
144 -240 -16 0
191 -240 -16 0
239 -240 -16 0
-144 240 16 0
-191 240 16 0
-239 240 16 0
-144 -191 -239 16 0
144 191 239 -16 0
-145 -193 241 0
-145 -240 241 0
-193 -240 241 0
145 193 -241 0
145 240 -241 0
193 240 -241 0
145 -241 -17 0
193 -241 -17 0
240 -241 -17 0
-145 241 17 0
-193 241 17 0
-240 241 17 0
-145 -193 -240 17 0
145 193 240 -17 0
-146 -195 242 0
-146 -241 242 0
-195 -241 242 0
146 195 -242 0
146 241 -242 0
195 241 -242 0
146 -242 -18 0
195 -242 -18 0
241 -242 -18 0
-146 242 18 0
-195 242 18 0
-241 242 18 0
-146 -195 -241 18 0
146 195 241 -18 0
-147 -197 243 0
-147 -242 243 0
-197 -242 243 0
147 197 -243 0
147 242 -243 0
197 242 -243 0
147 -243 -19 0
197 -243 -19 0
242 -243 -19 0
-147 243 19 0
-197 243 19 0
-242 243 19 0
-147 -197 -242 19 0
147 197 242 -19 0
-148 -199 244 0
-148 -243 244 0
-199 -243 244 0
148 199 -244 0
148 243 -244 0
199 243 -244 0
148 -244 -20 0
199 -244 -20 0
243 -244 -20 0
-148 244 20 0
-199 244 20 0
-243 244 20 0
-148 -199 -243 20 0
148 199 243 -20 0
-149 -201 245 0
-149 -244 245 0
-201 -244 245 0
149 201 -245 0
149 244 -245 0
201 244 -245 0
149 -245 -21 0
201 -245 -21 0
244 -245 -21 0
-149 245 21 0
-201 245 21 0
-244 245 21 0
-149 -201 -244 21 0
149 201 244 -21 0
-150 -203 246 0
-150 -245 246 0
-203 -245 246 0
150 203 -246 0
150 245 -246 0
203 245 -246 0
150 -246 -22 0
203 -246 -22 0
245 -246 -22 0
-150 246 22 0
-203 246 22 0
-245 246 22 0
-150 -203 -245 22 0
150 203 245 -22 0
-151 -205 247 0
-151 -246 247 0
-205 -246 247 0
151 205 -247 0
151 246 -247 0
205 246 -247 0
151 -247 -23 0
205 -247 -23 0
246 -247 -23 0
-151 247 23 0
-205 247 23 0
-246 247 23 0
-151 -205 -246 23 0
151 205 246 -23 0
-152 -207 248 0
-152 -247 248 0
-207 -247 248 0
152 207 -248 0
152 247 -248 0
207 247 -248 0
152 -248 -24 0
207 -248 -24 0
247 -248 -24 0
-152 248 24 0
-207 248 24 0
-247 248 24 0
-152 -207 -247 24 0
152 207 247 -24 0
-153 -209 249 0
-153 -248 249 0
-209 -248 249 0
153 209 -249 0
153 248 -249 0
209 248 -249 0
153 -249 -25 0
209 -249 -25 0
248 -249 -25 0
-153 249 25 0
-209 249 25 0
-248 249 25 0
-153 -209 -248 25 0
153 209 248 -25 0
-154 -211 250 0
-154 -249 250 0
-211 -249 250 0
154 211 -250 0
154 249 -250 0
211 249 -250 0
154 -250 -26 0
211 -250 -26 0
249 -250 -26 0
-154 250 26 0
-211 250 26 0
-249 250 26 0
-154 -211 -249 26 0
154 211 249 -26 0
-155 -213 251 0
-155 -250 251 0
-213 -250 251 0
155 213 -251 0
155 250 -251 0
213 250 -251 0
155 -251 -27 0
213 -251 -27 0
250 -251 -27 0
-155 251 27 0
-213 251 27 0
-250 251 27 0
-155 -213 -250 27 0
155 213 250 -27 0
-156 -215 252 0
-156 -251 252 0
-215 -251 252 0
156 215 -252 0
156 251 -252 0
215 251 -252 0
156 -252 -28 0
215 -252 -28 0
251 -252 -28 0
-156 252 28 0
-215 252 28 0
-251 252 28 0
-156 -215 -251 28 0
156 215 251 -28 0
-157 -217 253 0
-157 -252 253 0
-217 -252 253 0
157 217 -253 0
157 252 -253 0
217 252 -253 0
157 -253 -29 0
217 -253 -29 0
252 -253 -29 0
-157 253 29 0
-217 253 29 0
-252 253 29 0
-157 -217 -252 29 0
157 217 252 -29 0
-158 -219 254 0
-158 -253 254 0
-219 -253 254 0
158 219 -254 0
158 253 -254 0
219 253 -254 0
158 -254 -30 0
219 -254 -30 0
253 -254 -30 0
-158 254 30 0
-219 254 30 0
-253 254 30 0
-158 -219 -253 30 0
158 219 253 -30 0
-159 -221 255 0
-159 -254 255 0
-221 -254 255 0
159 221 -255 0
159 254 -255 0
221 254 -255 0
159 -255 -31 0
221 -255 -31 0
254 -255 -31 0
-159 255 31 0
-221 255 31 0
-254 255 31 0
-159 -221 -254 31 0
159 221 254 -31 0
-160 -223 256 0
-160 -255 256 0
-223 -255 256 0
160 223 -256 0
160 255 -256 0
223 255 -256 0
160 -256 -32 0
223 -256 -32 0
255 -256 -32 0
-160 256 32 0
-223 256 32 0
-255 256 32 0
-160 -223 -255 32 0
160 223 255 -32 0
-161 -225 257 0
-161 -256 257 0
-225 -256 257 0
161 225 -257 0
161 256 -257 0
225 256 -257 0
161 -257 -1 0
225 -257 -1 0
256 -257 -1 0
-161 257 1 0
-225 257 1 0
-256 257 1 0
-161 -225 -256 1 0
161 225 256 -1 0
34 -290 0
-34 290 0
35 -291 0
-35 291 0
36 -292 0
-36 292 0
37 -293 0
-37 293 0
38 -294 0
-38 294 0
39 -295 0
-39 295 0
40 -296 0
-40 296 0
41 -297 0
-41 297 0
42 -298 0
-42 298 0
43 -299 0
-43 299 0
44 -300 0
-44 300 0
45 -301 0
-45 301 0
46 -302 0
-46 302 0
47 -303 0
-47 303 0
48 -304 0
-48 304 0
49 -305 0
-49 305 0
50 -306 0
-50 306 0
51 -307 0
-51 307 0
52 -308 0
-52 308 0
53 -309 0
-53 309 0
54 -310 0
-54 310 0
55 -311 0
-55 311 0
56 -312 0
-56 312 0
57 -313 0
-57 313 0
58 -314 0
-58 314 0
59 -315 0
-59 315 0
60 -316 0
-60 316 0
61 -317 0
-61 317 0
62 -318 0
-62 318 0
63 -319 0
-63 319 0
64 -320 0
-64 320 0
65 -321 0
-65 321 0
66 -322 0
-66 322 0
67 -323 0
-67 323 0
68 -324 0
-68 324 0
69 -325 0
-69 325 0
70 -326 0
-70 326 0
71 -327 0
-71 327 0
72 -328 0
-72 328 0
73 -329 0
-73 329 0
74 -330 0
-74 330 0
75 -331 0
-75 331 0
76 -332 0
-76 332 0
77 -333 0
-77 333 0
78 -334 0
-78 334 0
79 -335 0
-79 335 0
80 -336 0
-80 336 0
81 -337 0
-81 337 0
82 -338 0
-82 338 0
83 -339 0
-83 339 0
84 -340 0
-84 340 0
85 -341 0
-85 341 0
86 -342 0
-86 342 0
87 -343 0
-87 343 0
88 -344 0
-88 344 0
89 -345 0
-89 345 0
90 -346 0
-90 346 0
91 -347 0
-91 347 0
92 -348 0
-92 348 0
93 -349 0
-93 349 0
94 -350 0
-94 350 0
95 -351 0
-95 351 0
96 -352 0
-96 352 0
97 -353 0
-97 353 0
98 -354 0
-98 354 0
99 -355 0
-99 355 0
100 -356 0
-100 356 0
101 -357 0
-101 357 0
102 -358 0
-102 358 0
103 -359 0
-103 359 0
104 -360 0
-104 360 0
105 -361 0
-105 361 0
106 -362 0
-106 362 0
107 -363 0
-107 363 0
108 -364 0
-108 364 0
109 -365 0
-109 365 0
110 -366 0
-110 366 0
111 -367 0
-111 367 0
112 -368 0
-112 368 0
113 -369 0
-113 369 0
114 -370 0
-114 370 0
115 -371 0
-115 371 0
116 -372 0
-116 372 0
117 -373 0
-117 373 0
118 -374 0
-118 374 0
119 -375 0
-119 375 0
120 -376 0
-120 376 0
121 -377 0
-121 377 0
122 -378 0
-122 378 0
123 -379 0
-123 379 0
124 -380 0
-124 380 0
125 -381 0
-125 381 0
126 -382 0
-126 382 0
127 -383 0
-127 383 0
128 -384 0
-128 384 0
129 -385 0
-129 385 0
130 -386 0
-130 386 0
131 -387 0
-131 387 0
132 -388 0
-132 388 0
133 -389 0
-133 389 0
134 -390 0
-134 390 0
135 -391 0
-135 391 0
136 -392 0
-136 392 0
137 -393 0
-137 393 0
138 -394 0
-138 394 0
139 -395 0
-139 395 0
140 -396 0
-140 396 0
141 -397 0
-141 397 0
142 -398 0
-142 398 0
143 -399 0
-143 399 0
144 -400 0
-144 400 0
145 -401 0
-145 401 0
146 -402 0
-146 402 0
147 -403 0
-147 403 0
148 -404 0
-148 404 0
149 -405 0
-149 405 0
150 -406 0
-150 406 0
151 -407 0
-151 407 0
152 -408 0
-152 408 0
153 -409 0
-153 409 0
154 -410 0
-154 410 0
155 -411 0
-155 411 0
156 -412 0
-156 412 0
157 -413 0
-157 413 0
158 -414 0
-158 414 0
159 -415 0
-159 415 0
160 -416 0
-160 416 0
161 -417 0
-161 417 0
-418 -420 -422 0
418 420 -422 0
-418 420 422 0
418 -420 422 0
-419 -421 -423 0
419 421 -423 0
-419 421 423 0
419 -421 423 0
-422 -424 0
-423 -424 0
422 423 424 0
-33 424 0
33 -424 0
c __CPROVER_malloc_is_new_array#1 FALSE
c symex::io::3 386 387 388 389 390 391 392 393 394 395 396 397 398 399 400 401 402 403 404 405 406 407 408 409 410 411 412 413 414 415 416 417
c symex::io::1 322 323 324 325 326 327 328 329 330 331 332 333 334 335 336 337 338 339 340 341 342 343 344 345 346 347 348 349 350 351 352 353
c symex::io::0 290 291 292 293 294 295 296 297 298 299 300 301 302 303 304 305 306 307 308 309 310 311 312 313 314 315 316 317 318 319 320 321
c __CPROVER_thread_id!0#1 FALSE FALSE FALSE FALSE FALSE FALSE FALSE FALSE FALSE FALSE FALSE FALSE FALSE FALSE FALSE FALSE FALSE FALSE FALSE FALSE FALSE FALSE FALSE FALSE FALSE FALSE FALSE FALSE FALSE FALSE FALSE FALSE
c query::h3!0@1#1 130 131 132 133 134 135 136 137 138 139 140 141 142 143 144 145 146 147 148 149 150 151 152 153 154 155 156 157 158 159 160 161
c __CPROVER_rounding_mode!0#1 FALSE FALSE FALSE FALSE FALSE FALSE FALSE FALSE FALSE FALSE FALSE FALSE FALSE FALSE FALSE FALSE FALSE FALSE FALSE FALSE FALSE FALSE FALSE FALSE FALSE FALSE FALSE FALSE FALSE FALSE FALSE FALSE
c query::h1!0@1#1 66 67 68 69 70 71 72 73 74 75 76 77 78 79 80 81 82 83 84 85 86 87 88 89 90 91 92 93 94 95 96 97
c __CPROVER_pipe_count#1 FALSE FALSE FALSE FALSE FALSE FALSE FALSE FALSE FALSE FALSE FALSE FALSE FALSE FALSE FALSE FALSE FALSE FALSE FALSE FALSE FALSE FALSE FALSE FALSE FALSE FALSE FALSE FALSE FALSE FALSE FALSE FALSE
c __CPROVER_next_thread_id#1 FALSE FALSE FALSE FALSE FALSE FALSE FALSE FALSE FALSE FALSE FALSE FALSE FALSE FALSE FALSE FALSE FALSE FALSE FALSE FALSE FALSE FALSE FALSE FALSE FALSE FALSE FALSE FALSE FALSE FALSE FALSE FALSE
c __CPROVER_memory_leak#1 FALSE FALSE FALSE FALSE FALSE FALSE FALSE FALSE FALSE FALSE FALSE FALSE FALSE FALSE FALSE FALSE FALSE FALSE FALSE FALSE FALSE FALSE FALSE FALSE FALSE FALSE FALSE FALSE FALSE FALSE FALSE FALSE
c symex::io::2 354 355 356 357 358 359 360 361 362 363 364 365 366 367 368 369 370 371 372 373 374 375 376 377 378 379 380 381 382 383 384 385
c __CPROVER_dead_object#1 FALSE FALSE FALSE FALSE FALSE FALSE FALSE FALSE FALSE FALSE FALSE FALSE FALSE FALSE FALSE FALSE FALSE FALSE FALSE FALSE FALSE FALSE FALSE FALSE FALSE FALSE FALSE FALSE FALSE FALSE FALSE FALSE
c __CPROVER_malloc_size#1 FALSE FALSE FALSE FALSE FALSE FALSE FALSE FALSE FALSE FALSE FALSE FALSE FALSE FALSE FALSE FALSE FALSE FALSE FALSE FALSE FALSE FALSE FALSE FALSE FALSE FALSE FALSE FALSE FALSE FALSE FALSE FALSE
c __CPROVER_deallocated#1 FALSE FALSE FALSE FALSE FALSE FALSE FALSE FALSE FALSE FALSE FALSE FALSE FALSE FALSE FALSE FALSE FALSE FALSE FALSE FALSE FALSE FALSE FALSE FALSE FALSE FALSE FALSE FALSE FALSE FALSE FALSE FALSE
c _start::l!0#1 34 35 36 37 38 39 40 41 42 43 44 45 46 47 48 49 50 51 52 53 54 55 56 57 58 59 60 61 62 63 64 65
c query::l!0@1#3 163 165 167 169 171 173 175 177 179 181 183 185 187 189 191 193 195 197 199 201 203 205 207 209 211 213 215 217 219 221 223 225
c __CPROVER_malloc_object#1 FALSE FALSE FALSE FALSE FALSE FALSE FALSE FALSE FALSE FALSE FALSE FALSE FALSE FALSE FALSE FALSE FALSE FALSE FALSE FALSE FALSE FALSE FALSE FALSE FALSE FALSE FALSE FALSE FALSE FALSE FALSE FALSE
c query::l!0@1#1 34 35 36 37 38 39 40 41 42 43 44 45 46 47 48 49 50 51 52 53 54 55 56 57 58 59 60 61 62 63 64 65
c _start::h1!0#1 66 67 68 69 70 71 72 73 74 75 76 77 78 79 80 81 82 83 84 85 86 87 88 89 90 91 92 93 94 95 96 97
c query::1::__return_value!0@1#2 2 3 4 5 6 7 8 9 10 11 12 13 14 15 16 17 18 19 20 21 22 23 24 25 26 27 28 29 30 31 32 1
c _start::h2!0#1 98 99 100 101 102 103 104 105 106 107 108 109 110 111 112 113 114 115 116 117 118 119 120 121 122 123 124 125 126 127 128 129
c query::h2!0@1#1 98 99 100 101 102 103 104 105 106 107 108 109 110 111 112 113 114 115 116 117 118 119 120 121 122 123 124 125 126 127 128 129
c _start::h3!0#1 130 131 132 133 134 135 136 137 138 139 140 141 142 143 144 145 146 147 148 149 150 151 152 153 154 155 156 157 158 159 160 161
c query::l!0@1#2 66 67 68 69 70 71 72 73 74 75 76 77 78 79 80 81 82 83 84 85 86 87 88 89 90 91 92 93 94 95 96 97
c query::l!0@1#4 2 3 4 5 6 7 8 9 10 11 12 13 14 15 16 17 18 19 20 21 22 23 24 25 26 27 28 29 30 31 32 1
c query::1::__return_value!0@1#1 258 259 260 261 262 263 264 265 266 267 268 269 270 271 272 273 274 275 276 277 278 279 280 281 282 283 284 285 286 287 288 289
c ind 1 2 3 4 5 6 7 8 9 10 0
c ind 11 12 13 14 15 16 17 18 19 20 0
c ind 21 22 23 24 25 26 27 28 29 30 0
c ind 31 32 0
cr 1 2 3 4 5 6 7 8 9 10 11 12 13 14 15 16 17 18 19 20 21 22 23 24 25 26 27 28 29 30 31 32
